32      4       
10      10      10      10      
0       0       0       0       0       4       2       4       5       7       
3       1       1       0       1       2       3       13      
5       4       2       0       5       5       6       9       12      16      22      
4       5       5       0       4       6       8       9       10      16      22      23      
4       5       0       1       3       4       8       18      22      23      
5       0       3       3       2       3       8       18      23      
5       0       4       4       3       2       8       18      
4       0       2       5       4       3       11      15      21      
9       5       6       3       0       2       11      21      
9       6       3       0       5       2       11      21      
6       10      5       1       0       2       14      20      
6       2       0       6       5       2       14      20      
3       0       4       7       5       2       17      22      
5       3       0       1       3       1       17      
3       2       0       8       1       1       17      
9       0       3       2       4       1       17      
8       5       0       6       6       2       19      26      
8       0       4       6       4       2       19      26      
3       0       5       4       9       3       24      30      31      
1       4       3       0       4       3       25      26      30      
5       3       8       4       0       3       25      26      30      
5       0       5       7       6       3       26      30      31      
3       0       3       4       4       3       25      26      31      
8       5       5       5       0       1       25      
10      5       0       6       3       2       27      29      
8       0       4       1       2       2       27      29      
6       0       4       5       5       1       28      
5       4       6       3       0       1       32      
7       3       4       3       0       1       32      
10      1       2       1       0       1       32      
1       3       5       0       4       1       32      
0       0       0       0       0       0       
